NAME: cuum790.tsp
TYPE: TSP
COMMENT: User-generated TSP file
DIMENSION: 790
EDGE_WEIGHT_TYPE: EUC_2D
NODE_COORD_SECTION
1 282.0 718.0
2 540.0 461.0
3 378.0 140.0
4 276.0 25.0
5 198.0 674.0
6 335.0 10.0
7 582.0 428.0
8 745.0 658.0
9 622.0 665.0
10 534.0 785.0
11 746.0 609.0
12 649.0 476.0
13 250.0 626.0
14 669.0 271.0
15 254.0 8.0
16 731.0 766.0
17 67.0 180.0
18 120.0 456.0
19 463.0 75.0
20 359.0 278.0
21 199.0 611.0
22 611.0 523.0
23 709.0 201.0
24 356.0 242.0
25 525.0 123.0
26 192.0 29.0
27 64.0 140.0
28 119.0 171.0
29 762.0 607.0
30 690.0 153.0
31 242.0 466.0
32 392.0 79.0
33 28.0 605.0
34 708.0 434.0
35 268.0 478.0
36 567.0 44.0
37 583.0 35.0
38 722.0 182.0
39 52.0 370.0
40 487.0 770.0
41 153.0 693.0
42 352.0 14.0
43 213.0 415.0
44 629.0 223.0
45 673.0 87.0
46 335.0 671.0
47 364.0 205.0
48 209.0 508.0
49 243.0 618.0
50 412.0 660.0
51 689.0 672.0
52 436.0 118.0
53 180.0 615.0
54 449.0 110.0
55 169.0 405.0
56 196.0 581.0
57 660.0 233.0
58 82.0 254.0
59 679.0 258.0
60 675.0 316.0
61 325.0 475.0
62 660.0 107.0
63 175.0 638.0
64 507.0 71.0
65 424.0 771.0
66 77.0 513.0
67 159.0 251.0
68 271.0 462.0
69 538.0 567.0
70 355.0 558.0
71 438.0 520.0
72 479.0 298.0
73 623.0 256.0
74 776.0 50.0
75 447.0 543.0
76 553.0 255.0
77 662.0 580.0
78 96.0 477.0
79 58.0 692.0
80 203.0 635.0
81 192.0 679.0
82 165.0 356.0
83 124.0 343.0
84 242.0 282.0
85 455.0 700.0
86 472.0 24.0
87 786.0 541.0
88 744.0 701.0
89 508.0 112.0
90 783.0 340.0
91 670.0 247.0
92 673.0 86.0
93 659.0 80.0
94 19.0 234.0
95 510.0 686.0
96 198.0 400.0
97 151.0 179.0
98 156.0 481.0
99 764.0 388.0
100 470.0 454.0
101 34.0 475.0
102 295.0 398.0
103 73.0 580.0
104 790.0 767.0
105 527.0 655.0
106 455.0 647.0
107 725.0 587.0
108 414.0 339.0
109 51.0 375.0
110 618.0 310.0
111 93.0 397.0
112 227.0 433.0
113 724.0 477.0
114 180.0 363.0
115 193.0 167.0
116 137.0 782.0
117 140.0 168.0
118 226.0 763.0
119 660.0 486.0
120 237.0 435.0
121 355.0 347.0
122 75.0 368.0
123 544.0 790.0
124 324.0 331.0
125 233.0 636.0
126 310.0 711.0
127 194.0 531.0
128 652.0 520.0
129 129.0 482.0
130 157.0 435.0
131 39.0 698.0
132 82.0 213.0
133 57.0 99.0
134 697.0 355.0
135 410.0 591.0
136 224.0 526.0
137 729.0 110.0
138 517.0 367.0
139 174.0 705.0
140 118.0 500.0
141 215.0 458.0
142 444.0 277.0
143 562.0 89.0
144 330.0 578.0
145 105.0 555.0
146 456.0 448.0
147 707.0 69.0
148 410.0 321.0
149 574.0 483.0
150 65.0 721.0
151 312.0 567.0
152 153.0 8.0
153 656.0 138.0
154 87.0 591.0
155 769.0 422.0
156 296.0 690.0
157 391.0 591.0
158 39.0 227.0
159 45.0 543.0
160 190.0 356.0
161 501.0 682.0
162 260.0 203.0
163 132.0 652.0
164 678.0 103.0
165 91.0 8.0
166 385.0 420.0
167 14.0 714.0
168 379.0 32.0
169 694.0 625.0
170 779.0 597.0
171 428.0 489.0
172 523.0 486.0
173 602.0 272.0
174 170.0 378.0
175 639.0 675.0
176 377.0 542.0
177 320.0 617.0
178 603.0 128.0
179 465.0 301.0
180 41.0 444.0
181 440.0 54.0
182 291.0 630.0
183 191.0 361.0
184 457.0 411.0
185 129.0 277.0
186 60.0 368.0
187 345.0 346.0
188 13.0 13.0
189 766.0 409.0
190 96.0 512.0
191 35.0 127.0
192 523.0 425.0
193 36.0 577.0
194 673.0 179.0
195 250.0 207.0
196 25.0 231.0
197 778.0 593.0
198 684.0 628.0
199 274.0 789.0
200 656.0 51.0
201 239.0 188.0
202 636.0 774.0
203 552.0 402.0
204 485.0 439.0
205 555.0 760.0
206 31.0 385.0
207 609.0 560.0
208 420.0 433.0
209 268.0 86.0
210 377.0 613.0
211 44.0 337.0
212 607.0 32.0
213 103.0 426.0
214 139.0 312.0
215 730.0 296.0
216 627.0 212.0
217 282.0 148.0
218 353.0 141.0
219 641.0 20.0
220 533.0 481.0
221 452.0 561.0
222 260.0 269.0
223 38.0 473.0
224 202.0 384.0
225 48.0 600.0
226 759.0 472.0
227 486.0 514.0
228 647.0 144.0
229 676.0 631.0
230 544.0 615.0
231 591.0 225.0
232 273.0 280.0
233 347.0 232.0
234 78.0 58.0
235 474.0 432.0
236 693.0 246.0
237 174.0 41.0
238 244.0 615.0
239 52.0 407.0
240 63.0 743.0
241 122.0 5.0
242 748.0 490.0
243 306.0 74.0
244 335.0 448.0
245 22.0 364.0
246 295.0 591.0
247 693.0 337.0
248 697.0 606.0
249 579.0 656.0
250 654.0 670.0
251 679.0 235.0
252 478.0 335.0
253 712.0 445.0
254 561.0 135.0
255 604.0 480.0
256 560.0 177.0
257 367.0 447.0
258 56.0 99.0
259 448.0 381.0
260 325.0 67.0
261 288.0 375.0
262 758.0 521.0
263 653.0 125.0
264 78.0 38.0
265 560.0 211.0
266 537.0 635.0
267 112.0 137.0
268 152.0 705.0
269 221.0 513.0
270 536.0 437.0
271 430.0 319.0
272 93.0 750.0
273 752.0 308.0
274 349.0 706.0
275 155.0 468.0
276 655.0 414.0
277 415.0 643.0
278 671.0 661.0
279 47.0 59.0
280 272.0 693.0
281 299.0 62.0
282 153.0 551.0
283 251.0 2.0
284 473.0 681.0
285 323.0 359.0
286 497.0 69.0
287 185.0 49.0
288 688.0 768.0
289 403.0 16.0
290 138.0 58.0
291 231.0 422.0
292 180.0 439.0
293 89.0 531.0
294 392.0 49.0
295 611.0 166.0
296 632.0 199.0
297 147.0 585.0
298 715.0 668.0
299 505.0 642.0
300 98.0 73.0
301 238.0 243.0
302 747.0 98.0
303 272.0 232.0
304 108.0 739.0
305 702.0 537.0
306 546.0 177.0
307 677.0 136.0
308 780.0 285.0
309 150.0 26.0
310 735.0 243.0
311 208.0 600.0
312 365.0 689.0
313 121.0 538.0
314 114.0 676.0
315 456.0 469.0
316 308.0 161.0
317 383.0 577.0
318 182.0 669.0
319 704.0 99.0
320 490.0 258.0
321 32.0 197.0
322 534.0 96.0
323 265.0 100.0
324 205.0 608.0
325 13.0 189.0
326 341.0 471.0
327 23.0 165.0
328 458.0 476.0
329 370.0 669.0
330 692.0 216.0
331 711.0 234.0
332 690.0 646.0
333 402.0 603.0
334 502.0 712.0
335 748.0 580.0
336 102.0 706.0
337 186.0 223.0
338 507.0 19.0
339 543.0 132.0
340 537.0 123.0
341 383.0 741.0
342 730.0 295.0
343 202.0 6.0
344 71.0 732.0
345 330.0 167.0
346 751.0 211.0
347 106.0 30.0
348 670.0 270.0
349 441.0 76.0
350 62.0 505.0
351 768.0 727.0
352 595.0 99.0
353 301.0 738.0
354 130.0 753.0
355 567.0 478.0
356 16.0 457.0
357 355.0 517.0
358 732.0 537.0
359 675.0 66.0
360 629.0 358.0
361 293.0 99.0
362 537.0 231.0
363 158.0 425.0
364 41.0 473.0
365 634.0 299.0
366 34.0 170.0
367 269.0 556.0
368 573.0 2.0
369 259.0 659.0
370 664.0 368.0
371 35.0 672.0
372 613.0 225.0
373 369.0 419.0
374 233.0 589.0
375 179.0 672.0
376 34.0 363.0
377 589.0 337.0
378 307.0 389.0
379 617.0 753.0
380 3.0 600.0
381 451.0 168.0
382 10.0 171.0
383 261.0 682.0
384 186.0 143.0
385 182.0 517.0
386 739.0 96.0
387 388.0 390.0
388 275.0 141.0
389 214.0 421.0
390 391.0 15.0
391 272.0 347.0
392 776.0 568.0
393 754.0 30.0
394 274.0 403.0
395 151.0 85.0
396 673.0 323.0
397 241.0 542.0
398 259.0 427.0
399 742.0 707.0
400 583.0 331.0
401 583.0 316.0
402 490.0 392.0
403 352.0 210.0
404 221.0 202.0
405 424.0 483.0
406 4.0 726.0
407 672.0 45.0
408 445.0 656.0
409 165.0 443.0
410 384.0 271.0
411 184.0 59.0
412 240.0 765.0
413 244.0 95.0
414 552.0 608.0
415 434.0 193.0
416 493.0 363.0
417 265.0 7.0
418 780.0 335.0
419 233.0 786.0
420 84.0 568.0
421 571.0 459.0
422 709.0 600.0
423 273.0 617.0
424 39.0 521.0
425 477.0 470.0
426 780.0 467.0
427 58.0 537.0
428 438.0 266.0
429 506.0 630.0
430 566.0 105.0
431 41.0 314.0
432 154.0 467.0
433 306.0 646.0
434 53.0 278.0
435 778.0 498.0
436 266.0 521.0
437 92.0 672.0
438 384.0 343.0
439 787.0 500.0
440 125.0 62.0
441 664.0 250.0
442 592.0 624.0
443 494.0 64.0
444 221.0 98.0
445 493.0 699.0
446 576.0 393.0
447 349.0 65.0
448 743.0 539.0
449 596.0 52.0
450 478.0 449.0
451 461.0 472.0
452 560.0 227.0
453 49.0 482.0
454 631.0 362.0
455 6.0 580.0
456 441.0 39.0
457 400.0 280.0
458 369.0 707.0
459 785.0 162.0
460 55.0 155.0
461 451.0 160.0
462 118.0 332.0
463 366.0 240.0
464 163.0 654.0
465 539.0 750.0
466 513.0 612.0
467 283.0 789.0
468 362.0 722.0
469 659.0 549.0
470 202.0 655.0
471 153.0 550.0
472 578.0 341.0
473 596.0 239.0
474 688.0 163.0
475 559.0 270.0
476 544.0 114.0
477 605.0 197.0
478 412.0 31.0
479 621.0 377.0
480 660.0 300.0
481 715.0 502.0
482 229.0 765.0
483 558.0 346.0
484 150.0 752.0
485 490.0 647.0
486 747.0 414.0
487 346.0 415.0
488 65.0 263.0
489 357.0 596.0
490 651.0 164.0
491 273.0 56.0
492 702.0 381.0
493 54.0 722.0
494 612.0 285.0
495 587.0 600.0
496 480.0 430.0
497 9.0 596.0
498 721.0 352.0
499 534.0 594.0
500 489.0 358.0
501 790.0 568.0
502 65.0 251.0
503 43.0 533.0
504 416.0 225.0
505 737.0 490.0
506 306.0 39.0
507 102.0 30.0
508 667.0 101.0
509 517.0 354.0
510 249.0 700.0
511 418.0 396.0
512 723.0 348.0
513 387.0 218.0
514 97.0 59.0
515 563.0 435.0
516 759.0 354.0
517 680.0 542.0
518 693.0 191.0
519 457.0 85.0
520 391.0 111.0
521 528.0 713.0
522 564.0 135.0
523 37.0 293.0
524 515.0 737.0
525 125.0 297.0
526 284.0 747.0
527 742.0 216.0
528 118.0 336.0
529 554.0 134.0
530 722.0 786.0
531 607.0 635.0
532 261.0 32.0
533 601.0 390.0
534 448.0 194.0
535 593.0 258.0
536 499.0 77.0
537 373.0 531.0
538 698.0 91.0
539 579.0 635.0
540 599.0 453.0
541 456.0 586.0
542 543.0 594.0
543 350.0 709.0
544 16.0 313.0
545 4.0 305.0
546 682.0 230.0
547 90.0 311.0
548 428.0 557.0
549 113.0 423.0
550 254.0 48.0
551 697.0 651.0
552 234.0 669.0
553 92.0 550.0
554 497.0 546.0
555 78.0 249.0
556 488.0 575.0
557 17.0 25.0
558 345.0 107.0
559 501.0 601.0
560 250.0 252.0
561 462.0 658.0
562 295.0 466.0
563 664.0 504.0
564 368.0 391.0
565 289.0 165.0
566 700.0 604.0
567 774.0 502.0
568 302.0 244.0
569 252.0 139.0
570 652.0 422.0
571 488.0 185.0
572 413.0 222.0
573 694.0 610.0
574 646.0 25.0
575 124.0 368.0
576 86.0 551.0
577 441.0 304.0
578 406.0 535.0
579 364.0 190.0
580 93.0 373.0
581 409.0 184.0
582 77.0 743.0
583 101.0 671.0
584 655.0 428.0
585 560.0 374.0
586 334.0 409.0
587 451.0 390.0
588 195.0 529.0
589 604.0 516.0
590 777.0 499.0
591 485.0 351.0
592 592.0 499.0
593 354.0 67.0
594 587.0 563.0
595 632.0 99.0
596 260.0 99.0
597 475.0 468.0
598 629.0 50.0
599 244.0 715.0
600 154.0 211.0
601 706.0 743.0
602 557.0 50.0
603 582.0 57.0
604 158.0 292.0
605 94.0 357.0
606 277.0 74.0
607 299.0 8.0
608 538.0 81.0
609 304.0 644.0
610 126.0 763.0
611 221.0 707.0
612 256.0 461.0
613 48.0 39.0
614 112.0 20.0
615 294.0 133.0
616 150.0 102.0
617 639.0 154.0
618 502.0 233.0
619 174.0 585.0
620 632.0 593.0
621 465.0 646.0
622 9.0 686.0
623 254.0 149.0
624 766.0 19.0
625 470.0 415.0
626 396.0 285.0
627 205.0 587.0
628 100.0 108.0
629 356.0 24.0
630 544.0 461.0
631 127.0 349.0
632 155.0 330.0
633 369.0 720.0
634 129.0 132.0
635 28.0 758.0
636 638.0 449.0
637 206.0 146.0
638 150.0 30.0
639 605.0 174.0
640 556.0 126.0
641 663.0 211.0
642 50.0 204.0
643 313.0 620.0
644 189.0 6.0
645 563.0 320.0
646 276.0 149.0
647 1.0 55.0
648 463.0 696.0
649 259.0 23.0
650 86.0 296.0
651 174.0 353.0
652 595.0 451.0
653 420.0 232.0
654 741.0 339.0
655 778.0 329.0
656 204.0 168.0
657 54.0 326.0
658 594.0 692.0
659 464.0 655.0
660 537.0 185.0
661 750.0 207.0
662 456.0 188.0
663 368.0 539.0
664 537.0 395.0
665 278.0 388.0
666 266.0 614.0
667 109.0 720.0
668 594.0 376.0
669 301.0 234.0
670 396.0 232.0
671 592.0 245.0
672 726.0 321.0
673 180.0 377.0
674 275.0 160.0
675 313.0 534.0
676 332.0 115.0
677 462.0 710.0
678 301.0 325.0
679 322.0 80.0
680 628.0 602.0
681 532.0 181.0
682 258.0 155.0
683 706.0 650.0
684 535.0 384.0
685 138.0 575.0
686 156.0 325.0
687 338.0 221.0
688 539.0 388.0
689 787.0 576.0
690 678.0 175.0
691 130.0 142.0
692 721.0 248.0
693 456.0 345.0
694 562.0 590.0
695 634.0 768.0
696 127.0 413.0
697 627.0 71.0
698 161.0 186.0
699 530.0 312.0
700 676.0 606.0
701 140.0 338.0
702 547.0 426.0
703 263.0 668.0
704 443.0 80.0
705 645.0 164.0
706 325.0 774.0
707 481.0 540.0
708 549.0 595.0
709 84.0 29.0
710 528.0 544.0
711 495.0 648.0
712 483.0 34.0
713 690.0 352.0
714 747.0 608.0
715 13.0 129.0
716 13.0 599.0
717 185.0 329.0
718 683.0 117.0
719 610.0 782.0
720 222.0 218.0
721 358.0 443.0
722 504.0 434.0
723 336.0 410.0
724 366.0 355.0
725 170.0 5.0
726 787.0 733.0
727 545.0 266.0
728 785.0 18.0
729 289.0 333.0
730 347.0 152.0
731 449.0 240.0
732 343.0 182.0
733 73.0 434.0
734 445.0 482.0
735 109.0 606.0
736 117.0 269.0
737 288.0 521.0
738 523.0 206.0
739 82.0 666.0
740 59.0 240.0
741 94.0 691.0
742 392.0 432.0
743 687.0 70.0
744 553.0 106.0
745 662.0 729.0
746 610.0 57.0
747 81.0 584.0
748 406.0 510.0
749 113.0 757.0
750 539.0 706.0
751 475.0 192.0
752 648.0 405.0
753 12.0 591.0
754 323.0 752.0
755 101.0 577.0
756 482.0 548.0
757 737.0 92.0
758 556.0 478.0
759 487.0 148.0
760 151.0 782.0
761 200.0 590.0
762 677.0 193.0
763 581.0 397.0
764 424.0 336.0
765 728.0 513.0
766 258.0 490.0
767 658.0 550.0
768 702.0 725.0
769 753.0 626.0
770 18.0 69.0
771 425.0 37.0
772 590.0 369.0
773 729.0 481.0
774 616.0 284.0
775 640.0 181.0
776 200.0 747.0
777 527.0 111.0
778 643.0 465.0
779 456.0 728.0
780 340.0 137.0
781 37.0 152.0
782 482.0 584.0
783 692.0 691.0
784 726.0 228.0
785 243.0 399.0
786 432.0 105.0
787 250.0 504.0
788 762.0 474.0
789 128.0 170.0
790 25.0 401.0
EOF





